h=10;
w=10;
b = [|2, 3, 3, 3, 3, 4, 5, 4, 4, 2|4, 6, 5, 4, 3, 5, 7, 7, 7, 4|4, 6, 7, 5, 5, 5, 7, 7, 8, 5|4, 6, 6, 4, 3, 2, 4, 6, 7, 5|3, 5, 7, 6, 5, 3, 3, 4, 4, 3|3, 5, 5, 5, 3, 3, 3, 5, 4, 3|2, 4, 4, 5, 4, 5, 4, 4, 4, 3|1, 3, 3, 4, 3, 4, 4, 5, 6, 5|0, 2, 4, 6, 6, 6, 5, 5, 6, 5|0, 1, 3, 4, 4, 4, 4, 5, 5, 4|]